1 0 0 1 0 0 1 0 0 1 1 
0 45 14 36 8 30 47 7 42 36 14 
45 0 9 19 31 22 38 22 50 15 33 
14 9 0 32 39 41 7 15 25 40 41 
36 19 32 0 18 15 38 45 43 6 12 
8 31 39 18 0 8 46 18 12 6 18 
30 22 41 15 8 0 26 31 18 36 47 
47 38 7 38 46 26 0 16 35 34 33 
7 22 15 45 18 31 16 0 42 30 23 
42 50 25 43 12 18 35 42 0 16 50 
36 15 40 6 6 36 34 30 16 0 24 
14 33 41 12 18 47 33 23 50 24 0 
4 8
1P 8B 7P 3B 2B 10P 4P 6B 9B 5B 11P = 137